cost: 863.39
Route 1:           0    7    9   14   34    0
Route 2:           0   21   12   18   38   31   17   15    0
Route 3:           0   22   35   11   43   39    0
Route 4:           0   30   23   28   27   41    0
Route 5:           0   36   37   20    8    3   47   29    1    0
Route 6:           0   13   16   40    2    0
Route 7:           0   42   33    4   45   26    0
Route 8:           0   46   10   44   32   49   19    0
Route 9:           0   50   25    5   48    6   24    0
